400 1584 
1 5 1
1 6 1
1 7 1
1 8 1
1 9 1
1 12 1
1 14 1
1 17 1
1 20 1
1 21 1
1 24 1
1 25 1
1 29 1
1 30 1
1 31 1
1 33 1
1 37 1
1 39 1
1 41 1
1 46 1
1 54 1
1 57 1
1 65 1
1 66 1
1 74 1
1 78 1
1 81 1
1 84 1
1 87 1
1 93 1
1 98 1
1 145 1
1 168 1
1 169 1
1 187 1
1 188 1
1 189 1
1 213 1
1 220 1
1 234 1
1 252 1
1 262 1
1 271 1
1 275 1
1 285 1
1 291 1
1 306 1
1 347 1
1 353 1
1 354 1
1 364 1
1 391 1
1 393 1
2 5 1
2 6 1
2 7 1
2 11 1
2 15 1
2 16 1
2 22 1
2 33 1
2 38 1
2 57 1
2 88 1
2 90 1
2 93 1
2 133 1
2 153 1
2 156 1
2 157 1
2 164 1
2 166 1
2 175 1
2 225 1
2 232 1
2 243 1
2 248 1
2 253 1
2 295 1
2 299 1
2 302 1
2 306 1
2 338 1
2 368 1
2 387 1
2 400 1
3 5 1
3 7 1
3 11 1
3 12 1
3 23 1
3 27 1
3 33 1
3 43 1
3 47 1
3 50 1
3 52 1
3 64 1
3 67 1
3 70 1
3 73 1
3 82 1
3 85 1
3 94 1
3 105 1
3 110 1
3 122 1
3 123 1
3 131 1
3 137 1
3 173 1
3 190 1
3 194 1
3 227 1
3 239 1
3 240 1
3 242 1
3 280 1
3 288 1
3 308 1
3 309 1
3 313 1
3 327 1
3 335 1
3 336 1
4 5 1
4 6 1
4 7 1
4 8 1
4 9 1
4 10 1
4 13 1
4 14 1
4 16 1
4 19 1
4 21 1
4 24 1
4 28 1
4 31 1
4 32 1
4 35 1
4 37 1
4 42 1
4 47 1
4 51 1
4 59 1
4 67 1
4 72 1
4 81 1
4 104 1
4 106 1
4 117 1
4 146 1
4 147 1
4 148 1
4 184 1
4 190 1
4 192 1
4 194 1
4 196 1
4 203 1
4 205 1
4 207 1
4 225 1
4 243 1
4 274 1
4 275 1
4 276 1
4 286 1
4 288 1
4 308 1
4 309 1
4 334 1
4 349 1
4 378 1
5 6 1
5 9 1
5 10 1
5 11 1
5 12 1
5 14 1
5 17 1
5 19 1
5 22 1
5 24 1
5 27 1
5 40 1
5 43 1
5 48 1
5 49 1
5 53 1
5 54 1
5 55 1
5 60 1
5 64 1
5 66 1
5 68 1
5 70 1
5 74 1
5 80 1
5 89 1
5 95 1
5 110 1
5 111 1
5 116 1
5 124 1
5 127 1
5 131 1
5 144 1
5 146 1
5 147 1
5 157 1
5 175 1
5 179 1
5 180 1
5 184 1
5 193 1
5 197 1
5 201 1
5 218 1
5 223 1
5 237 1
5 253 1
5 266 1
5 277 1
5 281 1
5 286 1
5 295 1
5 296 1
5 324 1
5 326 1
5 329 1
5 348 1
5 371 1
5 388 1
5 391 1
5 395 1
6 8 1
6 9 1
6 10 1
6 15 1
6 16 1
6 18 1
6 19 1
6 20 1
6 23 1
6 28 1
6 42 1
6 44 1
6 51 1
6 55 1
6 69 1
6 76 1
6 83 1
6 97 1
6 130 1
6 131 1
6 139 1
6 146 1
6 176 1
6 183 1
6 203 1
6 231 1
6 232 1
6 240 1
6 298 1
6 311 1
6 376 1
6 392 1
6 394 1
6 398 1
7 8 1
7 12 1
7 19 1
7 21 1
7 36 1
7 42 1
7 58 1
7 64 1
7 83 1
7 90 1
7 104 1
7 115 1
7 116 1
7 134 1
7 152 1
7 194 1
7 236 1
7 258 1
7 263 1
7 278 1
7 295 1
7 299 1
7 311 1
7 339 1
7 362 1
7 365 1
7 374 1
7 390 1
8 13 1
8 25 1
8 26 1
8 69 1
8 78 1
8 89 1
8 90 1
8 117 1
8 128 1
8 153 1
8 187 1
8 196 1
8 239 1
8 245 1
8 310 1
8 397 1
9 10 1
9 11 1
9 25 1
9 28 1
9 37 1
9 38 1
9 40 1
9 59 1
9 63 1
9 109 1
9 112 1
9 142 1
9 156 1
9 194 1
9 209 1
9 244 1
9 273 1
9 309 1
10 13 1
10 15 1
10 21 1
10 23 1
10 55 1
10 57 1
10 86 1
10 95 1
10 99 1
10 101 1
10 115 1
10 145 1
10 163 1
10 168 1
10 197 1
10 220 1
10 279 1
10 357 1
11 30 1
11 62 1
11 64 1
11 79 1
11 155 1
11 160 1
11 228 1
11 266 1
11 286 1
11 302 1
11 331 1
12 13 1
12 20 1
12 26 1
12 32 1
12 63 1
12 65 1
12 77 1
12 79 1
12 110 1
12 120 1
12 125 1
12 127 1
12 129 1
12 137 1
12 138 1
12 148 1
12 173 1
12 206 1
12 251 1
12 259 1
12 260 1
12 261 1
12 281 1
12 292 1
12 301 1
12 379 1
12 384 1
12 386 1
12 400 1
13 14 1
13 16 1
13 17 1
13 27 1
13 32 1
13 34 1
13 39 1
13 50 1
13 52 1
13 60 1
13 68 1
13 71 1
13 73 1
13 80 1
13 81 1
13 82 1
13 83 1
13 85 1
13 91 1
13 92 1
13 98 1
13 101 1
13 103 1
13 104 1
13 120 1
13 125 1
13 135 1
13 138 1
13 142 1
13 149 1
13 171 1
13 179 1
13 181 1
13 182 1
13 202 1
13 220 1
13 223 1
13 224 1
13 255 1
13 259 1
13 273 1
13 279 1
13 284 1
13 301 1
13 329 1
13 336 1
13 398 1
14 15 1
14 18 1
14 22 1
14 32 1
14 39 1
14 104 1
14 138 1
14 178 1
14 191 1
14 372 1
15 18 1
15 34 1
15 35 1
15 39 1
15 40 1
15 62 1
15 67 1
15 93 1
15 193 1
15 257 1
16 17 1
16 31 1
16 33 1
16 41 1
16 45 1
16 49 1
16 55 1
16 74 1
16 82 1
16 86 1
16 97 1
16 108 1
16 113 1
16 133 1
16 140 1
16 178 1
16 181 1
16 186 1
16 206 1
16 296 1
16 309 1
16 314 1
16 328 1
16 340 1
16 349 1
16 377 1
17 18 1
17 34 1
17 44 1
17 58 1
17 107 1
17 130 1
17 169 1
17 177 1
17 214 1
17 239 1
17 256 1
17 262 1
17 268 1
17 270 1
17 301 1
17 306 1
17 351 1
17 370 1
18 20 1
18 24 1
18 113 1
18 248 1
18 306 1
18 353 1
19 105 1
19 119 1
19 187 1
19 204 1
19 257 1
19 399 1
20 22 1
20 25 1
20 38 1
20 89 1
20 92 1
20 94 1
20 101 1
20 103 1
20 121 1
20 277 1
20 303 1
20 315 1
21 43 1
21 44 1
21 56 1
21 151 1
21 230 1
21 247 1
21 271 1
21 328 1
22 23 1
22 26 1
22 36 1
22 49 1
22 53 1
22 68 1
22 87 1
22 96 1
22 102 1
22 105 1
22 146 1
22 154 1
22 257 1
22 298 1
22 326 1
22 341 1
22 360 1
22 372 1
22 391 1
23 26 1
23 36 1
23 45 1
23 72 1
23 83 1
23 91 1
23 92 1
23 114 1
23 135 1
23 154 1
23 189 1
23 256 1
23 361 1
24 27 1
24 29 1
24 46 1
24 62 1
24 205 1
24 274 1
24 289 1
24 293 1
24 352 1
25 29 1
25 46 1
25 47 1
25 58 1
25 62 1
25 66 1
25 87 1
25 133 1
25 185 1
25 247 1
25 350 1
25 367 1
25 370 1
26 28 1
26 30 1
26 35 1
26 38 1
26 48 1
26 49 1
26 76 1
26 80 1
26 98 1
26 106 1
26 123 1
26 127 1
26 148 1
26 158 1
26 161 1
26 162 1
26 190 1
26 243 1
26 287 1
26 294 1
26 317 1
26 333 1
26 344 1
26 346 1
26 398 1
27 30 1
27 43 1
27 74 1
27 77 1
27 95 1
27 113 1
27 149 1
27 159 1
27 222 1
27 244 1
27 305 1
27 320 1
27 330 1
27 340 1
27 366 1
27 385 1
28 29 1
28 35 1
28 37 1
28 42 1
28 56 1
28 72 1
28 93 1
28 102 1
28 114 1
28 134 1
28 165 1
28 191 1
28 216 1
28 218 1
28 229 1
28 241 1
28 254 1
28 344 1
28 348 1
29 31 1
29 130 1
29 255 1
29 279 1
30 34 1
30 61 1
30 63 1
30 116 1
30 123 1
30 125 1
30 131 1
30 160 1
30 182 1
30 214 1
30 217 1
30 312 1
31 252 1
32 77 1
32 144 1
32 201 1
32 234 1
32 283 1
32 299 1
33 36 1
33 41 1
33 70 1
33 75 1
33 86 1
33 111 1
33 152 1
33 188 1
33 221 1
33 230 1
33 288 1
33 368 1
34 44 1
34 52 1
34 56 1
34 75 1
34 99 1
34 165 1
34 280 1
34 285 1
35 41 1
35 59 1
35 65 1
35 89 1
35 124 1
35 145 1
35 150 1
35 215 1
35 223 1
35 243 1
35 271 1
35 281 1
35 316 1
35 330 1
35 365 1
35 368 1
36 45 1
36 94 1
36 150 1
36 164 1
36 282 1
37 50 1
37 57 1
37 79 1
37 116 1
37 126 1
37 132 1
37 134 1
37 204 1
37 223 1
38 40 1
38 45 1
38 50 1
38 53 1
38 63 1
38 72 1
38 76 1
38 78 1
38 100 1
38 103 1
38 122 1
38 134 1
38 152 1
38 171 1
38 197 1
38 216 1
38 256 1
38 260 1
38 267 1
38 300 1
38 357 1
38 386 1
39 53 1
39 61 1
39 71 1
39 75 1
39 99 1
39 157 1
39 162 1
39 168 1
39 177 1
39 212 1
39 215 1
39 217 1
39 222 1
39 285 1
39 298 1
39 311 1
39 329 1
39 380 1
39 383 1
40 69 1
40 84 1
40 128 1
40 132 1
40 193 1
40 222 1
40 224 1
40 229 1
40 265 1
40 267 1
40 326 1
41 48 1
41 75 1
41 87 1
41 111 1
41 119 1
41 141 1
41 166 1
41 289 1
41 318 1
41 343 1
42 46 1
42 51 1
42 98 1
42 109 1
42 125 1
42 161 1
42 179 1
42 185 1
42 186 1
42 206 1
42 231 1
42 274 1
42 291 1
43 68 1
43 124 1
43 230 1
43 231 1
43 321 1
44 51 1
44 52 1
44 135 1
44 136 1
44 176 1
44 201 1
44 224 1
44 254 1
45 122 1
45 167 1
45 236 1
46 47 1
46 48 1
46 54 1
46 56 1
46 59 1
46 60 1
46 66 1
46 70 1
46 114 1
46 161 1
46 163 1
46 189 1
46 227 1
46 234 1
46 341 1
46 376 1
46 380 1
47 65 1
47 106 1
47 107 1
47 114 1
47 144 1
47 195 1
47 211 1
47 235 1
47 354 1
47 371 1
48 61 1
48 80 1
48 159 1
48 186 1
48 219 1
48 265 1
48 307 1
48 346 1
48 348 1
49 129 1
49 177 1
49 314 1
49 330 1
49 364 1
49 372 1
49 395 1
49 396 1
50 54 1
50 118 1
50 154 1
50 183 1
50 206 1
50 253 1
50 297 1
50 379 1
50 381 1
51 155 1
51 204 1
52 58 1
52 60 1
52 61 1
52 73 1
52 79 1
52 151 1
52 202 1
52 207 1
52 343 1
52 399 1
53 122 1
53 141 1
53 274 1
53 282 1
53 350 1
53 380 1
54 278 1
54 321 1
55 88 1
55 292 1
55 297 1
55 316 1
56 67 1
56 82 1
56 121 1
56 126 1
56 140 1
56 153 1
56 175 1
56 198 1
56 233 1
56 249 1
56 397 1
57 236 1
57 297 1
58 100 1
58 138 1
58 140 1
58 150 1
58 160 1
58 202 1
58 217 1
58 315 1
58 325 1
59 77 1
59 78 1
59 132 1
59 159 1
59 327 1
59 369 1
59 393 1
60 69 1
60 252 1
60 375 1
61 92 1
61 103 1
61 121 1
61 158 1
61 164 1
61 219 1
61 228 1
61 240 1
61 261 1
61 268 1
61 278 1
61 315 1
61 323 1
62 99 1
62 102 1
62 211 1
62 232 1
63 211 1
63 218 1
63 345 1
64 85 1
64 115 1
64 241 1
64 261 1
64 303 1
65 76 1
65 91 1
65 100 1
65 108 1
65 118 1
65 169 1
65 179 1
65 210 1
65 260 1
65 318 1
65 353 1
66 71 1
66 391 1
67 81 1
67 88 1
67 118 1
67 120 1
67 143 1
67 208 1
67 227 1
67 238 1
67 264 1
67 343 1
67 351 1
67 373 1
68 71 1
68 73 1
68 231 1
68 261 1
68 296 1
68 367 1
69 96 1
69 107 1
69 354 1
70 127 1
70 143 1
70 337 1
70 385 1
71 84 1
71 88 1
71 117 1
71 195 1
71 213 1
71 325 1
71 355 1
71 392 1
72 119 1
72 251 1
72 342 1
73 85 1
73 100 1
73 108 1
73 256 1
73 269 1
73 343 1
74 181 1
75 188 1
75 328 1
76 86 1
76 90 1
76 112 1
76 113 1
76 145 1
76 167 1
76 183 1
76 195 1
76 236 1
76 297 1
76 299 1
76 323 1
76 376 1
76 386 1
77 126 1
78 95 1
78 102 1
78 109 1
78 156 1
78 165 1
78 168 1
78 176 1
78 196 1
78 258 1
78 284 1
78 363 1
79 111 1
79 129 1
79 135 1
79 157 1
79 160 1
79 207 1
79 216 1
79 266 1
79 283 1
79 333 1
79 337 1
79 377 1
80 126 1
80 143 1
80 216 1
80 356 1
81 84 1
81 91 1
81 101 1
81 139 1
81 151 1
81 209 1
81 324 1
81 367 1
82 96 1
82 109 1
82 124 1
82 136 1
82 158 1
82 169 1
82 177 1
82 178 1
82 198 1
82 208 1
82 235 1
82 263 1
82 360 1
83 108 1
83 141 1
83 221 1
83 235 1
83 252 1
83 262 1
83 311 1
83 321 1
83 366 1
83 373 1
83 380 1
83 392 1
84 118 1
84 195 1
84 202 1
84 271 1
85 208 1
85 355 1
86 107 1
86 132 1
86 153 1
86 167 1
86 174 1
86 298 1
87 147 1
87 163 1
87 226 1
87 245 1
87 276 1
87 290 1
87 304 1
87 319 1
87 352 1
88 198 1
88 244 1
88 308 1
88 319 1
88 339 1
88 352 1
89 94 1
89 128 1
89 139 1
89 154 1
89 161 1
89 170 1
89 200 1
89 327 1
89 342 1
89 371 1
90 97 1
90 105 1
90 143 1
90 163 1
90 199 1
90 226 1
90 235 1
90 279 1
90 305 1
90 360 1
90 362 1
90 385 1
91 180 1
91 259 1
92 96 1
92 172 1
92 210 1
93 149 1
93 164 1
93 182 1
93 222 1
93 228 1
93 316 1
93 359 1
94 130 1
94 137 1
94 228 1
94 241 1
94 288 1
94 359 1
95 156 1
95 174 1
95 238 1
95 284 1
95 319 1
95 322 1
96 97 1
96 141 1
96 191 1
96 201 1
96 254 1
96 346 1
97 178 1
97 262 1
97 277 1
97 377 1
98 106 1
98 123 1
98 264 1
98 280 1
98 373 1
99 166 1
99 233 1
99 255 1
100 246 1
101 142 1
101 200 1
101 207 1
101 215 1
101 219 1
101 238 1
101 363 1
102 155 1
102 258 1
104 347 1
105 119 1
105 129 1
105 191 1
105 263 1
105 349 1
106 210 1
107 254 1
107 270 1
107 272 1
107 374 1
108 117 1
108 147 1
108 149 1
108 225 1
108 226 1
108 264 1
108 287 1
109 110 1
109 112 1
109 133 1
109 172 1
109 185 1
109 237 1
109 358 1
109 388 1
110 112 1
110 120 1
110 200 1
110 233 1
110 301 1
110 399 1
111 115 1
111 211 1
111 377 1
112 165 1
112 166 1
112 233 1
112 335 1
112 358 1
113 159 1
113 396 1
114 270 1
114 341 1
115 136 1
115 217 1
115 347 1
116 137 1
116 248 1
116 250 1
116 317 1
117 128 1
117 171 1
117 213 1
117 283 1
117 289 1
117 327 1
117 362 1
118 190 1
118 275 1
118 338 1
119 121 1
120 155 1
120 384 1
121 152 1
121 171 1
121 173 1
121 199 1
121 229 1
121 246 1
121 266 1
121 322 1
121 324 1
122 167 1
123 203 1
123 246 1
123 317 1
124 136 1
125 281 1
126 142 1
126 249 1
127 259 1
127 382 1
128 139 1
128 148 1
128 184 1
128 205 1
128 213 1
128 242 1
128 378 1
129 290 1
129 345 1
130 192 1
130 286 1
130 342 1
131 144 1
132 226 1
132 351 1
132 396 1
133 188 1
133 387 1
134 140 1
134 151 1
134 172 1
134 181 1
134 214 1
134 248 1
134 296 1
134 300 1
136 189 1
136 245 1
136 249 1
137 265 1
137 291 1
137 350 1
137 358 1
139 170 1
139 176 1
139 183 1
139 187 1
139 209 1
139 215 1
139 247 1
139 369 1
139 394 1
140 192 1
140 241 1
140 307 1
141 234 1
141 242 1
141 393 1
142 150 1
142 185 1
144 292 1
144 379 1
144 384 1
145 272 1
147 331 1
148 170 1
148 389 1
149 192 1
149 305 1
149 325 1
150 198 1
150 367 1
151 399 1
152 158 1
152 349 1
153 162 1
153 280 1
154 170 1
154 361 1
154 381 1
155 247 1
155 337 1
157 162 1
157 174 1
157 205 1
157 289 1
157 320 1
157 355 1
157 389 1
157 390 1
158 186 1
158 212 1
158 221 1
158 224 1
158 244 1
158 283 1
158 307 1
158 365 1
159 291 1
159 332 1
160 278 1
160 310 1
160 322 1
160 388 1
161 282 1
162 174 1
162 265 1
162 332 1
162 361 1
162 363 1
163 218 1
163 304 1
164 182 1
165 172 1
165 173 1
165 253 1
165 273 1
165 290 1
165 295 1
165 340 1
165 364 1
166 203 1
166 366 1
167 322 1
168 212 1
168 258 1
168 356 1
168 392 1
169 237 1
169 323 1
169 351 1
169 372 1
170 250 1
171 227 1
171 251 1
171 307 1
171 400 1
172 175 1
172 329 1
172 331 1
172 335 1
172 371 1
172 384 1
173 180 1
173 221 1
173 249 1
173 273 1
173 285 1
174 272 1
175 180 1
175 199 1
175 238 1
175 287 1
175 335 1
176 193 1
177 338 1
177 360 1
179 208 1
179 230 1
179 284 1
181 184 1
181 210 1
181 232 1
183 240 1
183 276 1
183 310 1
183 388 1
184 196 1
184 263 1
184 269 1
184 275 1
184 318 1
184 336 1
184 382 1
184 395 1
185 200 1
185 293 1
185 320 1
185 354 1
186 348 1
187 204 1
187 229 1
187 290 1
187 302 1
190 197 1
192 214 1
192 359 1
193 199 1
193 276 1
193 363 1
193 379 1
193 381 1
194 287 1
194 304 1
194 368 1
194 374 1
196 370 1
197 328 1
198 317 1
198 387 1
199 277 1
199 303 1
199 337 1
199 341 1
199 342 1
199 361 1
199 382 1
200 340 1
203 332 1
203 381 1
204 209 1
204 237 1
204 270 1
205 212 1
206 282 1
206 320 1
206 398 1
207 251 1
207 269 1
207 366 1
210 375 1
212 219 1
212 312 1
212 383 1
213 220 1
214 268 1
214 326 1
215 264 1
215 268 1
215 293 1
215 312 1
216 316 1
217 389 1
218 397 1
219 225 1
220 255 1
220 267 1
222 239 1
222 260 1
222 334 1
225 304 1
225 314 1
225 385 1
226 294 1
228 318 1
229 246 1
229 300 1
229 383 1
230 369 1
232 333 1
232 336 1
232 375 1
233 257 1
233 376 1
233 396 1
234 242 1
235 346 1
236 357 1
236 386 1
237 245 1
237 269 1
237 356 1
238 394 1
240 250 1
242 393 1
245 331 1
246 350 1
247 324 1
249 250 1
249 267 1
249 308 1
250 373 1
252 325 1
253 312 1
253 383 1
253 389 1
257 294 1
257 355 1
259 365 1
260 300 1
261 272 1
262 370 1
263 315 1
263 332 1
263 394 1
264 321 1
266 344 1
267 313 1
269 330 1
273 347 1
274 339 1
275 345 1
278 294 1
278 305 1
278 323 1
279 313 1
279 339 1
281 293 1
284 390 1
285 302 1
286 292 1
287 344 1
290 345 1
294 310 1
300 313 1
300 314 1
300 364 1
300 374 1
301 303 1
306 319 1
306 397 1
308 356 1
309 338 1
309 378 1
310 358 1
315 334 1
318 333 1
321 334 1
321 375 1
321 378 1
323 362 1
329 352 1
332 390 1
336 357 1
336 369 1
336 382 1
338 353 1
340 359 1
344 400 1
372 395 1
378 387 1
